\ENCODING=ISO-8859-1
\Problem name: lpex1

Minimize
 obj:
Subject To
 c1:  - x4 + x5  = 100
 c2:  x1 - x3 - x4  = -819.409492886997
 c3:  x2  = 700
 c4:  - x1 + x2 - 0.198240871340533 x5 + 393.7008 x6  = 0
 c5:  - x10 + x11  = 80.0000011920929
 c6:  x7 - x9 - x10  = 79.9606798432755
 c7:  x8  = 700
 c8:  - x7 + x8 - 7.52446952976966e-11 x11 + 307.388446482464 x12  = 0
 c9:  x3  = 908
 c10: - x3 - 0.00159569469091933 x4 + x9  = 0
 c11: - x1 + x2 <= -0.001
 c12: - x7 + x8 <= -0.001
Bounds
      x1 Free
      x2 Free
      x3 Free
      x4 Free
      x5 >= 0.001
      x6 = 1
      x7 Free
      x8 Free
      x9 Free
      x10 Free
      x11 >= 0.001
 0.5 <= x12 <= 1
End
